1771753080778226776504,7,1,2,01,14,1,2,09,13,1,2,03,12,1,2,06,4,1,2,04,6,1,2,01,6,1,2,04,11,1,2,02,2,1,2,02,13,1,2,012,1,1,2,07,13,1,2,014,11,1,2,06,4,1,2,07,5,1,2,07,12,1,2,012,11,1,2,010,13,1,2,05,10,1,2,04,15,1,2,09,11,1,2,09,6,1,2,012,11,1,2,07,9,1,2,011,5,1,2,011,11,1,2,011,1,1,2,02,4,1,2,015,3,1,2,013,2,1,2,010,14,1,2,05,15,1,2,011,5,1,2,013,3,1,2,02,12,1,2,09,4,1,2,07,14,1,2,06,12,1,2,08,6,1,2,02,15,1,2,012,2,1,2,02,7,1,2,05,9,1,2,014,13,1,2,01,6,1,2,013,13,1,2,014,6,1,2,012,8,1,2,010,10,1,2,012,12,1,2,0